c clasp version 3.3.10
c Reading from input.txt
c Solving...
s UNSATISFIABLE
c 
c Models         : 0
c Calls          : 1
c Time           : 7.697s (Solving: 7.46s 1st Model: 0.00s Unsat: 7.46s)
c CPU Time       : 7.695s
